(set-option :produce-models true)
(set-option :produce-unsat-cores true)
(set-option :produce-interpolants true)
(set-option :interpolant-check-mode true)
(set-option :proof-transformation LU)
(set-logic ALL)
(set-info :source |SMT script generated on 2024-03-31T00:12:20+01:00 by Ultimate (https://ultimate.informatik.uni-freiburg.de/)|)
(set-info :smt-lib-version 2.5)
(set-info :category "industrial")
(set-info :ultimate-id hard-ll.c_AllErrorsAtOnce_Iteration4)
(declare-fun |c_old(#valid)| () (Array Int Int))
(declare-fun |c_old(#valid)_primed| () (Array Int Int))
(declare-fun |c_#valid| () (Array Int Int))
(declare-fun |c_#valid_primed| () (Array Int Int))
(declare-fun |c_old(#length)| () (Array Int Int))
(declare-fun |c_old(#length)_primed| () (Array Int Int))
(declare-fun |c_#length| () (Array Int Int))
(declare-fun |c_#length_primed| () (Array Int Int))
(declare-fun |c_old(#memory_int#0)| () (Array Int (Array Int Int)))
(declare-fun |c_old(#memory_int#0)_primed| () (Array Int (Array Int Int)))
(declare-fun |c_#memory_int#0| () (Array Int (Array Int Int)))
(declare-fun |c_#memory_int#0_primed| () (Array Int (Array Int Int)))
(declare-fun |c_old(#StackHeapBarrier)| () Int)
(declare-fun |c_old(#StackHeapBarrier)_primed| () Int)
(declare-fun |c_#StackHeapBarrier| () Int)
(declare-fun |c_#StackHeapBarrier_primed| () Int)
(declare-fun |c_#Ultimate.allocInit_~size| () Int)
(declare-fun |c_#Ultimate.allocInit_~size_primed| () Int)
(declare-fun |c_#Ultimate.allocInit_ptrBase| () Int)
(declare-fun |c_#Ultimate.allocInit_ptrBase_primed| () Int)
(declare-fun |c___VERIFIER_nondet_uint_#res| () Int)
(declare-fun |c___VERIFIER_nondet_uint_#res_primed| () Int)
(declare-fun |c_read~int#0_#ptr.base| () Int)
(declare-fun |c_read~int#0_#ptr.base_primed| () Int)
(declare-fun |c_read~int#0_#ptr.offset| () Int)
(declare-fun |c_read~int#0_#ptr.offset_primed| () Int)
(declare-fun |c_read~int#0_#sizeOfReadType| () Int)
(declare-fun |c_read~int#0_#sizeOfReadType_primed| () Int)
(declare-fun |c_read~int#0_#value| () Int)
(declare-fun |c_read~int#0_#value_primed| () Int)
(declare-fun |c_assume_abort_if_not_#in~cond| () Int)
(declare-fun |c_assume_abort_if_not_#in~cond_primed| () Int)
(declare-fun c_assume_abort_if_not_~cond () Int)
(declare-fun c_assume_abort_if_not_~cond_primed () Int)
(declare-fun |c_main_#res| () Int)
(declare-fun |c_main_#res_primed| () Int)
(declare-fun |c_main_#t~nondet4| () Int)
(declare-fun |c_main_#t~nondet4_primed| () Int)
(declare-fun |c_main_#t~nondet5| () Int)
(declare-fun |c_main_#t~nondet5_primed| () Int)
(declare-fun c_main_~A~0 () Int)
(declare-fun c_main_~A~0_primed () Int)
(declare-fun c_main_~B~0 () Int)
(declare-fun c_main_~B~0_primed () Int)
(declare-fun c_main_~r~0 () Int)
(declare-fun c_main_~r~0_primed () Int)
(declare-fun c_main_~d~0 () Int)
(declare-fun c_main_~d~0_primed () Int)
(declare-fun c_main_~p~0 () Int)
(declare-fun c_main_~p~0_primed () Int)
(declare-fun c_main_~q~0 () Int)
(declare-fun c_main_~q~0_primed () Int)
(declare-fun |c_write~int#0_#value| () Int)
(declare-fun |c_write~int#0_#value_primed| () Int)
(declare-fun |c_write~int#0_#ptr.base| () Int)
(declare-fun |c_write~int#0_#ptr.base_primed| () Int)
(declare-fun |c_write~int#0_#ptr.offset| () Int)
(declare-fun |c_write~int#0_#ptr.offset_primed| () Int)
(declare-fun |c_write~int#0_#sizeOfWrittenType| () Int)
(declare-fun |c_write~int#0_#sizeOfWrittenType_primed| () Int)
(declare-fun |c_ULTIMATE.start_#t~ret6| () Int)
(declare-fun |c_ULTIMATE.start_#t~ret6_primed| () Int)
(declare-fun |c___VERIFIER_assert_#in~cond| () Int)
(declare-fun |c___VERIFIER_assert_#in~cond_primed| () Int)
(declare-fun c___VERIFIER_assert_~cond () Int)
(declare-fun c___VERIFIER_assert_~cond_primed () Int)
(declare-fun |c___assert_fail_#in~0.base| () Int)
(declare-fun |c___assert_fail_#in~0.base_primed| () Int)
(declare-fun |c___assert_fail_#in~0.offset| () Int)
(declare-fun |c___assert_fail_#in~0.offset_primed| () Int)
(declare-fun |c___assert_fail_#in~1.base| () Int)
(declare-fun |c___assert_fail_#in~1.base_primed| () Int)
(declare-fun |c___assert_fail_#in~1.offset| () Int)
(declare-fun |c___assert_fail_#in~1.offset_primed| () Int)
(declare-fun |c___assert_fail_#in~2| () Int)
(declare-fun |c___assert_fail_#in~2_primed| () Int)
(declare-fun |c___assert_fail_#in~3.base| () Int)
(declare-fun |c___assert_fail_#in~3.base_primed| () Int)
(declare-fun |c___assert_fail_#in~3.offset| () Int)
(declare-fun |c___assert_fail_#in~3.offset_primed| () Int)
(declare-fun |c_write~init~int#0_#value| () Int)
(declare-fun |c_write~init~int#0_#value_primed| () Int)
(declare-fun |c_write~init~int#0_#ptr.base| () Int)
(declare-fun |c_write~init~int#0_#ptr.base_primed| () Int)
(declare-fun |c_write~init~int#0_#ptr.offset| () Int)
(declare-fun |c_write~init~int#0_#ptr.offset_primed| () Int)
(declare-fun |c_write~init~int#0_#sizeOfWrittenType| () Int)
(declare-fun |c_write~init~int#0_#sizeOfWrittenType_primed| () Int)
(declare-fun c_ULTIMATE.dealloc_~addr.base () Int)
(declare-fun c_ULTIMATE.dealloc_~addr.base_primed () Int)
(declare-fun c_ULTIMATE.dealloc_~addr.offset () Int)
(declare-fun c_ULTIMATE.dealloc_~addr.offset_primed () Int)
(declare-fun |c_aux_v_ULTIMATE.start_#t~ret6_3| () Int)
(echo "starting trace check")
(push 1)
(declare-fun |#memory_int#0_-1| () (Array Int (Array Int Int)))
(declare-fun |#StackHeapBarrier_-1| () Int)
(declare-fun |#length_-1| () (Array Int Int))
(declare-fun |#valid_-1| () (Array Int Int))
(declare-fun |main_#t~nondet5_4| () Int)
(declare-fun |main_#t~nondet4_4| () Int)
(declare-fun main_~q~0_4 () Int)
(declare-fun main_~d~0_4 () Int)
(declare-fun main_~B~0_4 () Int)
(declare-fun main_~A~0_4 () Int)
(declare-fun main_~p~0_4 () Int)
(declare-fun main_~r~0_4 () Int)
(declare-fun main_~B~0_5 () Int)
(declare-fun |assume_abort_if_not_#in~cond_5| () Int)
(declare-fun assume_abort_if_not_~cond_6 () Int)
(declare-fun assume_abort_if_not_~cond_7 () Int)
(declare-fun main_~q~0_10 () Int)
(declare-fun main_~d~0_10 () Int)
(declare-fun main_~p~0_10 () Int)
(declare-fun main_~r~0_10 () Int)
(declare-fun main_~q~0_12 () Int)
(declare-fun |__VERIFIER_assert_#in~cond_12| () Int)
(declare-fun __VERIFIER_assert_~cond_13 () Int)
(declare-fun __VERIFIER_assert_~cond_14 () Int)
(declare-fun |__VERIFIER_assert_#in~cond_17| () Int)
(declare-fun main_~A~0_17 () Int)
(declare-fun main_~r~0_17 () Int)
(declare-fun __VERIFIER_assert_~cond_18 () Int)
(declare-fun __VERIFIER_assert_~cond_19 () Int)
(declare-fun |__VERIFIER_assert_#in~cond_22| () Int)
(declare-fun main_~d~0_22 () Int)
(declare-fun main_~B~0_22 () Int)
(declare-fun main_~p~0_22 () Int)
(declare-fun __VERIFIER_assert_~cond_23 () Int)
(declare-fun __VERIFIER_assert_~cond_24 () Int)
(assert (! true :named ssa_precond))
(assert (! (not false) :named ssa_postcond))
(assert (! true :named ssa_0_GlobVarAssigCall))
(assert (! true :named ssa_0_LocVarAssigCall))
(assert (! true :named ssa_0_OldVarAssigCall))
(assert (! (and (< 0 |#StackHeapBarrier_-1|) (= 12 (select |#length_-1| 3)) (= (select |#valid_-1| 3) 1) (= (select |#valid_-1| 2) 1) (= (select |#length_-1| 2) 10) (= (select |#valid_-1| 1) 1) (= (select (select |#memory_int#0_-1| 1) 1) 0) (= (select |#length_-1| 1) 2) (= (select (select |#memory_int#0_-1| 1) 0) 48) (= (select |#valid_-1| 0) 0)) :named ssa_1))
(assert (! true :named ssa_2_return))
(assert (! true :named ssa_3_GlobVarAssigCall))
(assert (! true :named ssa_3_LocVarAssigCall))
(assert (! true :named ssa_3_OldVarAssigCall))
(assert (! true :named ssa_4))
(assert (! true :named ssa_5_GlobVarAssigCall))
(assert (! (= |assume_abort_if_not_#in~cond_5| (ite (<= 1 (mod main_~B~0_4 4294967296)) 1 0)) :named ssa_5_LocVarAssigCall))
(assert (! true :named ssa_5_OldVarAssigCall))
(assert (! (= |assume_abort_if_not_#in~cond_5| assume_abort_if_not_~cond_6) :named ssa_6))
(assert (! (not (= assume_abort_if_not_~cond_6 0)) :named ssa_7))
(assert (! true :named ssa_8))
(assert (! true :named ssa_9_return))
(assert (! (and (= main_~p~0_10 1) (= main_~r~0_10 (mod main_~A~0_4 4294967296)) (= main_~d~0_10 (mod main_~B~0_4 4294967296)) (= main_~q~0_10 0)) :named ssa_10))
(assert (! true :named ssa_11))
(assert (! true :named ssa_12_GlobVarAssigCall))
(assert (! (= |__VERIFIER_assert_#in~cond_12| (ite (= main_~q~0_10 0) 1 0)) :named ssa_12_LocVarAssigCall))
(assert (! true :named ssa_12_OldVarAssigCall))
(assert (! (= __VERIFIER_assert_~cond_13 |__VERIFIER_assert_#in~cond_12|) :named ssa_13))
(assert (! (not (= __VERIFIER_assert_~cond_13 0)) :named ssa_14))
(assert (! true :named ssa_15))
(assert (! true :named ssa_16_return))
(assert (! true :named ssa_17_GlobVarAssigCall))
(assert (! (= |__VERIFIER_assert_#in~cond_17| (ite (= main_~r~0_10 (mod main_~A~0_4 4294967296)) 1 0)) :named ssa_17_LocVarAssigCall))
(assert (! true :named ssa_17_OldVarAssigCall))
(assert (! (= __VERIFIER_assert_~cond_18 |__VERIFIER_assert_#in~cond_17|) :named ssa_18))
(assert (! (not (= __VERIFIER_assert_~cond_18 0)) :named ssa_19))
(assert (! true :named ssa_20))
(assert (! true :named ssa_21_return))
(assert (! true :named ssa_22_GlobVarAssigCall))
(assert (! (= |__VERIFIER_assert_#in~cond_22| (ite (= (* main_~p~0_10 (mod main_~B~0_4 4294967296)) main_~d~0_10) 1 0)) :named ssa_22_LocVarAssigCall))
(exit)
